unsat
(:SPACER-conj                         5
 :SPACER-inductive-gen                20
 :SPACER-inductive-gen-weaken-fail    20
 :SPACER-inductive-level              7
 :SPACER-max-depth                    9
 :SPACER-max-query-lvl                9
 :SPACER-non-local-gen                11
 :SPACER-num-active-lemmas            12
 :SPACER-num-ctp-blocked              16
 :SPACER-num-invariants               8
 :SPACER-num-is_invariant             49
 :SPACER-num-lemmas                   40
 :SPACER-num-pobs                     12
 :SPACER-num-propagations             17
 :SPACER-num-queries                  18
 :SPACER-subsume-pob                  1
 :SPACER-subsume-success              2
 :added-eqs                           708
 :arith-assert-diseq                  650
 :arith-assert-lower                  2708
 :arith-assert-upper                  3220
 :arith-bound-prop                    160
 :arith-conflicts                     62
 :arith-eq-adapter                    70
 :arith-fixed-eqs                     138
 :arith-num-rows                      24
 :arith-offset-eqs                    20
 :arith-pivots                        206
 :arith-row-summations                424
 :arith-tableau-max-columns           68
 :arith-tableau-max-rows              24
 :conflicts                           398
 :decisions                           768
 :del-clause                          326
 :final-checks                        82
 :iuc_solver.num_proxies              38
 :max-memory                          31.79
 :memory                              31.25
 :minimized-lits                      46
 :mk-bool-var                         1456
 :mk-clause                           1202
 :num-allocs                          20395779
 :num-checks                          330
 :pool_solver.checks                  165
 :pool_solver.checks.sat              37
 :pool_solver.checks.undef            4
 :propagations                        13266
 :rlimit-count                        61851
 :time                                0.10
 :time.iuc_solver.get_iuc             0.02
 :time.iuc_solver.get_iuc.hyp_reduce1 0.00
 :time.iuc_solver.get_iuc.hyp_reduce2 0.01
 :time.iuc_solver.get_iuc.learn_core  0.00
 :time.pool_solver.proof              0.00
 :time.pool_solver.smt.total          0.03
 :time.pool_solver.smt.total.sat      0.01
 :time.spacer.init_rules              0.00
 :time.spacer.mbp                     0.00
 :time.spacer.solve                   0.09
 :time.spacer.solve.propagate         0.01
 :time.spacer.solve.reach             0.07
 :time.spacer.solve.reach.children    0.00
 :time.spacer.solve.reach.cluster     0.01
 :time.spacer.solve.reach.gen.global  0.01
 :time.spacer.solve.reach.gen.ind     0.00
 :time.spacer.solve.reach.is-reach    0.00)
(:max-memory   31.79
 :memory       31.25
 :num-allocs   20395779
 :rlimit-count 61851
 :time         0.10
 :total-time   0.12)
